100 8
566 160
838 764
647 571
304 730
135 830
128 632
388 791
638 247
214 264
444 861
503 577
698 721
702 733
717 609
397 613
122 262
203 338
249 307
731 440
569 630
324 710
260 660
182 671
377 122
772 599
727 390
833 685
244 797
761 693
189 312
279 151
803 619
296 700
421 226
783 699
606 642
568 751
251 621
235 910
493 184
762 686
893 674
827 459
597 562
714 690
190 505
285 315
427 897
713 679
249 98
112 374
343 649
112 819
390 800
343 247
760 323
173 479
528 497
213 445
802 724
760 610
370 353
128 877
412 716
648 442
157 240
290 495
280 691
394 782
213 966
574 572
603 173
117 284
530 112
30 503
573 233
326 422
754 696
551 875
675 185
614 507
407 739
531 777
591 772
437 576
828 615
725 687
793 831
633 268
259 325
348 670
525 278
253 315
582 681
167 269
647 527
246 561
727 768
779 685
517 652
